Traveling Salesman Problem/TSP_generados/Aleatorio1621103281_7.tsp
NAME: Aleatorio1621103281_7.tsp
COMMENT: Randomly generated scenario
TYPE: TSP
DIMENSION: 7
EDGE_WEIGHT_TYPE: ATT
NODE_COORD_SECTION
1 6.81 18.74
2 49.01 15.81
3 33.55 17.9
4 48.7 38.21
5 26.42 43.96
6 25.26 30.68
7 10.9 3.11
