Traveling Salesman Problem/TSP_generados/Aleatorio1621103281_7.opt.tour
NAME: Aleatorio1621103281_7.opt.tour
COMMENT: Optimal solution for Aleatorio1621103281_7 (139.52730280835448)
TYPE: TOUR
DIMENSION: 7
TOUR_SECTION
1 6 5 4 2 3 7
-1
EOF
